211 3541
2 3 4 5 6 7 8 9 10 11 12 13 14 15 16 33 36 41 43 45 47 48 51 54 56 57 59 60 61 62 63 64 65 66 67 68 69 70 71 72 73 74 75 76 77 78 79 80 81 82 83 84 85 88 90 91 92 99 101 106 107 108 109 110 117 120 121 122 124 125 126 127 128 129 130 131 132 133 134 135 136 137 138 139 140 141 142 143 144 145 146 147 148 151 152 154 156 162 163 164 165 166 167 168 170 172 173 174 175 176 177 178 179 180 181 182 183 184 185 186 190 191 192 193 194 195 196 197 198 199 200 201 202 204 205 206 207 208 210 211
1 3 4 5 6 7 8 9 10 11 12 13 14 15 16 33 36 41 43 45 47 48 51 54 56 57 59 60 61 62 63 64 65 66 67 68 69 70 71 72 73 74 75 76 77 78 79 80 81 82 83 84 85 88 90 91 92 99 101 106 107 108 109 110 117 120 121 122 124 125 126 127 128 129 130 131 132 133 134 135 136 137 138 139 140 141 142 143 144 145 146 147 148 151 152 154 156 162 163 164 165 166 167 168 170 172 173 174 175 176 177 178 179 180 181 182 183 184 185 186 190 191 192 193 194 195 196 197 198 199 200 201 202 204 205 206 207 208 210 211
1 2 4 5 6 7 8 9 10 11 12 13 14 15 16 33 36 41 43 45 47 48 51 54 56 57 59 60 61 62 63 64 65 66 67 68 69 70 71 72 73 74 75 76 77 78 79 80 81 82 83 84 85 88 90 91 92 99 101 106 107 108 109 110 117 120 121 122 124 125 126 127 128 129 130 131 132 133 134 135 136 137 138 139 145 146 147 148 151 152 154 156 162 163 164 165 166 167 168 170 172 173 174 175 176 177 178 179 180 181 182 183 184 185 186 190 191 192 193 194 195 196 197 198 199 200 201 202 204 205 206 207 208 210 211
1 2 3 5 6 7 8 9 10 11 12 13 14 15 16 33 36 41 43 45 47 48 51 54 56 57 59 60 61 70 71 72 73 74 75 76 77 78 80 82 85 88 90 91 92 99 101 106 107 108 109 110 117 120 121 122 124 125 126 127 128 129 130 131 132 133 134 135 136 137 138 139 145 146 147 148 151 152 154 156 162 163 164 165 166 167 168 170 172 173 174 175 176 177 178 179 180 181 182 183 184 185 186 190 191 192 193 194 195 196 197 198 199 200 201 202 204 205 206 207 208 210 211
1 2 3 4 6 7 8 9 10 11 12 13 14 15 16 33 36 41 43 45 47 48 51 54 56 57 59 60 61 62 70 71 72 73 74 75 76 77 78 80 82 85 88 90 91 92 99 101 106 107 108 109 110 117 120 121 122 124 125 126 127 128 129 130 131 132 133 134 135 136 137 138 139 144 145 146 147 148 151 152 154 156 162 163 164 165 166 167 168 170 172 173 174 175 176 177 178 179 180 181 182 183 184 185 186 190 191 192 193 194 195 196 197 198 199 200 201 202 204 205 206 207 208 210 211
1 2 3 4 5 7 8 9 10 11 12 13 14 15 16 33 36 41 43 45 47 48 51 54 56 57 59 60 61 62 63 70 71 72 73 74 75 76 77 78 80 82 85 88 90 91 92 99 101 106 107 108 109 110 117 120 121 122 124 125 126 127 128 129 130 131 132 133 134 135 136 137 138 139 143 144 145 146 147 148 151 152 154 156 162 163 164 165 166 167 168 170 172 173 174 175 176 177 178 179 180 181 182 183 184 185 186 190 191 192 193 194 195 196 197 198 199 200 201 202 204 205 206 207 208 210 211
1 2 3 4 5 6 8 9 10 11 12 13 14 15 16 33 36 41 43 45 47 48 51 54 56 57 59 60 61 62 63 64 70 71 72 73 74 75 76 77 78 80 82 85 88 90 91 92 99 101 106 107 108 109 110 117 120 121 122 124 125 126 127 128 129 130 131 132 133 134 135 136 137 138 139 142 143 144 145 146 147 148 151 152 154 156 162 163 164 165 166 167 168 170 172 173 174 175 176 177 178 179 180 181 182 183 184 185 186 190 191 192 193 194 195 196 197 198 199 200 201 202 204 205 206 207 208 210 211
1 2 3 4 5 6 7 9 10 11 12 13 14 15 16 33 36 41 43 45 47 48 51 54 56 57 59 60 61 62 63 64 65 70 71 72 73 74 75 76 77 78 80 82 85 88 90 91 92 99 101 106 107 108 109 110 117 120 121 122 124 125 126 127 128 129 130 131 132 133 134 135 136 137 138 139 141 142 143 144 145 146 147 148 151 152 154 156 162 163 164 165 166 167 168 170 172 173 174 175 176 177 178 179 180 181 182 183 184 185 186 190 191 192 193 194 195 196 197 198 199 200 201 202 204 205 206 207 208 210 211
1 2 3 4 5 6 7 8 10 11 12 13 14 15 16 33 36 41 43 45 47 48 51 54 56 57 59 60 61 62 63 64 65 66 70 71 72 73 74 75 76 77 78 80 82 85 88 90 91 92 99 101 106 107 108 109 110 117 120 121 122 124 125 126 127 128 129 130 131 132 133 134 135 136 137 138 139 140 141 142 143 144 145 146 147 148 151 152 154 156 162 163 164 165 166 167 168 170 172 173 174 175 176 177 178 179 180 181 182 183 184 185 186 190 191 192 193 194 195 196 197 198 199 200 201 202 204 205 206 207 208 210 211
1 2 3 4 5 6 7 8 9 11 12 13 14 15 16 33 36 41 43 45 47 48 51 54 56 57 59 60 61 62 63 64 65 66 67 70 71 72 73 74 75 76 77 78 80 82 85 88 90 91 92 99 101 106 107 108 109 110 117 120 121 122 124 125 126 127 128 129 130 131 132 133 134 135 136 137 138 139 140 141 142 143 144 145 146 147 148 151 152 154 156 162 163 164 165 166 167 168 170 172 173 174 175 176 177 178 179 180 181 182 183 184 185 186 190 191 192 193 194 195 196 197 198 199 200 201 202 204 205 206 207 208 210 211
1 2 3 4 5 6 7 8 9 10 12 13 14 15 16 33 36 41 43 45 47 48 51 54 56 57 59 60 61 62 63 64 65 66 67 68 69 70 71 72 73 74 75 76 77 78 79 80 81 82 83 84 85 88 90 91 92 99 101 106 107 108 109 110 117 120 121 122 124 125 126 127 128 129 130 131 132 133 134 135 136 137 138 139 145 146 147 148 151 152 154 156 162 163 164 165 166 167 168 170 172 173 174 175 176 177 178 179 180 181 182 183 184 185 186 190 191 192 193 194 195 196 197 198 199 200 201 202 204 205 206 207 208 210 211
1 2 3 4 5 6 7 8 9 10 11 13 14 15 16 33 36 41 43 45 47 48 51 54 56 57 59 60 61 62 63 64 65 66 67 68 69 70 71 72 73 74 75 76 77 78 79 80 81 82 83 84 85 88 90 91 92 99 101 106 107 108 109 110 117 120 121 122 124 125 126 127 128 129 130 131 132 133 134 135 136 137 138 139 145 146 147 148 151 152 154 156 162 163 164 165 166 167 168 170 172 173 174 175 176 177 178 179 180 181 182 183 184 185 186 190 191 192 193 194 195 196 197 198 199 200 201 202 204 205 206 207 208 210 211
1 2 3 4 5 6 7 8 9 10 11 12 14 15 16 33 36 41 43 45 47 48 51 54 56 57 59 60 61 62 63 64 65 66 67 68 69 70 71 72 73 74 75 76 77 78 79 80 81 82 83 84 85 88 90 91 92 99 101 106 107 108 109 110 117 120 121 122 124 125 126 127 128 129 130 131 132 133 134 135 136 137 138 139 145 146 147 148 151 152 154 156 162 163 164 165 166 167 168 170 172 173 174 175 176 177 178 179 180 181 182 183 184 185 186 190 191 192 193 194 195 196 197 198 199 200 201 202 204 205 206 207 208 210 211
1 2 3 4 5 6 7 8 9 10 11 12 13 15 16 33 36 41 43 45 47 48 51 54 56 57 59 60 61 62 63 64 65 66 67 68 69 70 71 72 73 74 75 76 77 78 79 80 81 82 83 84 85 88 90 91 92 99 101 106 107 108 109 110 117 120 121 122 124 125 126 127 128 129 130 131 132 133 134 135 136 137 138 139 145 146 147 148 151 152 154 156 162 163 164 165 166 167 168 170 172 173 174 175 176 177 178 179 180 181 182 183 184 185 186 190 191 192 193 194 195 196 197 198 199 200 201 202 204 205 206 207 208 210 211
1 2 3 4 5 6 7 8 9 10 11 12 13 14 16 33 36 41 43 45 47 48 51 54 56 57 59 60 61 67 68 69 70 71 72 73 74 75 76 77 78 79 80 81 82 83 84 85 88 90 91 92 99 101 106 107 108 109 110 117 120 121 122 124 125 126 127 128 129 130 131 132 133 134 135 136 137 138 139 145 146 147 148 151 152 154 156 162 163 164 165 166 167 168 170 172 173 174 175 176 177 178 179 180 181 182 183 184 185 186 190 191 192 193 194 195 196 197 198 199 200 201 202 204 205 206 207 208 210 211
1 2 3 4 5 6 7 8 9 10 11 12 13 14 15 33 36 41 43 45 47 48 51 54 56 57 59 60 61 62 63 64 65 66 67 68 69 70 71 72 73 74 75 76 77 78 79 80 81 82 83 84 85 88 90 91 92 99 101 106 107 108 109 110 117 120 121 122 124 125 126 127 128 129 130 131 132 133 134 135 136 137 138 139 140 141 142 143 144 145 146 147 148 151 152 154 156 162 163 164 165 166 167 168 170 172 173 174 175 176 177 178 179 180 181 182 183 184 185 186 190 191 192 193 194 195 196 197 198 199 200 201 202 204 205 206 207 208 210 211
18 19 20 21 22 23 24 25 26 27 28 29 30 31 32 33 36 41 43 45 47 48 51 54 56 57 59 60 61 62 63 64 65 66 67 68 69 70 71 72 73 74 75 76 77 78 79 80 81 82 83 84 85 88 90 91 92 99 101 106 107 108 109 110 117 120 121 122 124 125 126 127 128 129 130 131 132 133 134 135 136 137 138 139 140 141 142 143 144 145 146 147 148 151 152 154 156 162 163 164 165 166 167 168 170 172 173 174 175 176 177 178 179 180 181 182 183 184 185 186 190 191 192 193 194 195 196 197 198 199 200 201 202 204 205 206 207 208 210 211
17 19 20 21 22 23 24 25 26 27 28 29 30 31 32 62 63 64 65 66 67 68 69 79 81 83 84 140 141 142 143 144
17 18 20 21 22 23 24 25 26 27 28 29 30 31 32 62 63 64 65 66 67 68 69 70 79 81 83 84 139 140 141 142 143 144
17 18 19 21 22 23 24 25 26 27 28 29 30 31 32 62 63 64 65 66 67 68 69 70 71 79 81 83 84 138 139 140 141 142 143 144
17 18 19 20 22 23 24 25 26 27 28 29 30 31 32 62 63 64 65 66 67 68 69 70 71 72 79 81 83 84 137 138 139 140 141 142 143 144
17 18 19 20 21 23 24 25 26 27 28 29 30 31 32 62 63 64 65 66 67 68 69 70 71 72 73 79 81 83 84 136 137 138 139 140 141 142 143 144
17 18 19 20 21 22 24 25 26 27 28 29 30 31 32 62 63 64 65 66 67 68 69 70 71 72 73 74 79 81 83 84 135 136 137 138 139 140 141 142 143 144
17 18 19 20 21 22 23 25 26 27 28 29 30 31 32 62 63 64 65 66 67 68 69 70 71 72 73 74 75 79 81 83 84 134 135 136 137 138 139 140 141 142 143 144
17 18 19 20 21 22 23 24 26 27 28 29 30 31 32 62 63 64 65 66 67 68 69 70 71 72 73 74 75 76 79 81 83 84 133 134 135 136 137 138 139 140 141 142 143 144
17 18 19 20 21 22 23 24 25 27 28 29 30 31 32 62 63 64 65 66 67 68 69 70 71 72 73 74 75 76 77 79 81 83 84 132 133 134 135 136 137 138 139 140 141 142 143 144
17 18 19 20 21 22 23 24 25 26 28 29 30 31 32 33 36 41 43 45 47 48 51 54 56 57 59 60 61 62 63 64 65 66 67 68 69 79 81 83 84 99 101 106 107 108 109 110 117 120 121 122 124 125 126 127 131 132 133 134 135 136 137 138 139 140 141 142 143 144 145 146 147 148 151 152 154 156 162 163 164 165 166 167 168 170 172 173 174 175 176 177 178 179 180 181 182 183 184 185 186 190 191 192 193 194 195 196 197 198 199 200 201 202 204 205 206 207 208 210 211
17 18 19 20 21 22 23 24 25 26 27 29 30 31 32 33 36 41 43 45 47 48 54 62 63 64 65 66 67 68 69 79 81 83 84 140 141 142 143 144
17 18 19 20 21 22 23 24 25 26 27 28 30 31 32 33 36 41 43 45 47 48 54 62 63 64 65 66 67 68 69 79 81 83 84 140 141 142 143 144
17 18 19 20 21 22 23 24 25 26 27 28 29 31 32 33 36 41 43 45 47 48 54 62 63 64 65 66 67 68 69 79 81 83 84 140 141 142 143 144
17 18 19 20 21 22 23 24 25 26 27 28 29 30 32 33 36 41 43 45 47 48 54 62 63 64 65 66 67 68 69 79 81 83 84 140 141 142 143 144
17 18 19 20 21 22 23 24 25 26 27 28 29 30 31 33 36 41 43 45 47 48 54 62 63 64 65 66 67 68 69 79 81 83 84 140 141 142 143 144
1 2 3 4 5 6 7 8 9 10 11 12 13 14 15 16 17 27 28 29 30 31 32 36 41 43 45 47 48 51 54 59 60 61 99 101 106 107 108 109 110 117 120 121 122 124 125 126 127 145 146 147 148 151 152 154 156 162 163 164 165 210 211


1 2 3 4 5 6 7 8 9 10 11 12 13 14 15 16 17 27 28 29 30 31 32 33 41 43 45 47 48 51 54 56 57 59 60 61 99 101 106 107 108 109 110 117 120 121 122 124 125 126 127 128 129 130 131 132 133 134 135 136 137 138 139 145 146 147 148 151 152 154 156 162 163 164 165 166 167 168 170 172 173 174 175 176 177 178 179 180 181 182 183 184 185 186 190 191 192 193 194 195 196 197 198 199 200 201 202 204 205 206 207 208 210 211




1 2 3 4 5 6 7 8 9 10 11 12 13 14 15 16 17 27 28 29 30 31 32 33 36 43 45 48 51 54 56 57 59 60 61 106 107 108 109 110 117 120 121 122 124 125 126 127 145 146 147 148 151 152 154 156 162 163 164 165 166 167 168 170 172 173 174 175 176 177 178 179 180 181 182 183 184 185 186 190 191 192 193 194 195 196 197 198 199 200 201 202 204 205 206 207 208 210 211

1 2 3 4 5 6 7 8 9 10 11 12 13 14 15 16 17 27 28 29 30 31 32 33 36 41 45 48 51 54 56 57 59 60 61 106 107 108 109 110 117 120 121 122 124 125 126 127 145 146 147 148 151 152 154 156 162 163 164 165 166 167 168 170 172 173 174 175 176 177 178 179 180 181 182 183 184 185 186 190 191 192 193 194 195 196 197 198 199 200 201 202 204 205 206 207 208 210 211

1 2 3 4 5 6 7 8 9 10 11 12 13 14 15 16 17 27 28 29 30 31 32 33 36 41 43 48 51 54 56 57 59 60 61 106 107 108 109 110 117 120 121 122 124 125 126 127 145 146 147 148 151 152 154 156 162 163 164 165 166 167 168 170 172 173 174 175 176 177 178 179 180 181 182 190 191 192 193 194 195 196 197 198 199 200 201 202 204 205 206 207 208 210 211

1 2 3 4 5 6 7 8 9 10 11 12 13 14 15 16 17 27 28 29 30 31 32 33 36 48 51 88 90 91 92 99
1 2 3 4 5 6 7 8 9 10 11 12 13 14 15 16 17 27 28 29 30 31 32 33 36 41 43 45 47 51 54 59 60 61 99 101 106 107 108 109 110 117 120 121 122 124 125 126 127 145 146 147 148 151 152 154 156 162 163 164 165 190 191 192 210 211


1 2 3 4 5 6 7 8 9 10 11 12 13 14 15 16 17 27 33 36 41 43 45 47 48 54 56 57 59 60 61 99 101 106 107 108 109 110 117 120 121 122 124 125 126 127 145 146 147 148 154 156 162 163 164 165 166 167 168 170 172 173 174 175 176 177 178 179 180 181 182 183 184 185 186 190 191 192 193 194 195 196 197 198 199 200 201 202 204 205 206 207 208 210 211


1 2 3 4 5 6 7 8 9 10 11 12 13 14 15 16 17 27 28 29 30 31 32 33 36 41 43 45 48 51 56 57 59 60 61 106 107 108 109 110 117 120 121 122 124 125 126 127 145 146 147 148 151 152 154 156 162 163 164 165 166 167 168 170 172 173 174 175 176 177 178 179 180 181 182 183 184 185 186 190 191 192 193 194 195 196 197 198 199 200 201 202 204 205 206 207 208 210 211

1 2 3 4 5 6 7 8 9 10 11 12 13 14 15 16 17 27 36 41 43 45 51 54 57 61 125 166 170 191 193 200 204 205 206 207 208
1 2 3 4 5 6 7 8 9 10 11 12 13 14 15 16 17 27 36 41 43 45 51 54 56 61 125 172 173 174 175 176 177 178 179 180 181 182 183 184 185 186

1 2 3 4 5 6 7 8 9 10 11 12 13 14 15 16 17 27 33 36 41 43 45 48 51 54 60 120 121 122
1 2 3 4 5 6 7 8 9 10 11 12 13 14 15 16 17 27 33 36 41 43 45 48 51 54 59 61 120 121 122 124
1 2 3 4 5 6 7 8 9 10 11 12 13 14 15 16 17 27 33 36 41 43 45 48 51 54 56 57 60 124 125 126 127 145 146 147 148 151 152 162 163 164 165 166 167 168 170 172 173 174 175 176 177 178 179 180 181 182 183 184 185 186 190 191 192 193 194 195 196 197 198 199 200 201 202 204 205 206 207 208
1 2 3 5 6 7 8 9 10 11 12 13 14 16 17 18 19 20 21 22 23 24 25 26 27 28 29 30 31 32
1 2 3 6 7 8 9 10 11 12 13 14 16 17 18 19 20 21 22 23 24 25 26 27 28 29 30 31 32
1 2 3 7 8 9 10 11 12 13 14 16 17 18 19 20 21 22 23 24 25 26 27 28 29 30 31 32
1 2 3 8 9 10 11 12 13 14 16 17 18 19 20 21 22 23 24 25 26 27 28 29 30 31 32
1 2 3 9 10 11 12 13 14 16 17 18 19 20 21 22 23 24 25 26 27 28 29 30 31 32
1 2 3 10 11 12 13 14 15 16 17 18 19 20 21 22 23 24 25 26 27 28 29 30 31 32 68 69 79 81 83 84 140 141 142 143 144
1 2 3 11 12 13 14 15 16 17 18 19 20 21 22 23 24 25 26 27 28 29 30 31 32 67 69 79 81 83 84 140 141 142 143 144
1 2 3 11 12 13 14 15 16 17 18 19 20 21 22 23 24 25 26 27 28 29 30 31 32 67 68 79 81 83 84 140 141 142 143 144
1 2 3 4 5 6 7 8 9 10 11 12 13 14 15 16 17 19 20 21 22 23 24 25 26
1 2 3 4 5 6 7 8 9 10 11 12 13 14 15 16 17 20 21 22 23 24 25 26
1 2 3 4 5 6 7 8 9 10 11 12 13 14 15 16 17 21 22 23 24 25 26
1 2 3 4 5 6 7 8 9 10 11 12 13 14 15 16 17 22 23 24 25 26
1 2 3 4 5 6 7 8 9 10 11 12 13 14 15 16 17 23 24 25 26
1 2 3 4 5 6 7 8 9 10 11 12 13 14 15 16 17 24 25 26
1 2 3 4 5 6 7 8 9 10 11 12 13 14 15 16 17 25 26
1 2 3 4 5 6 7 8 9 10 11 12 13 14 15 16 17 26
1 2 3 4 5 6 7 8 9 10 11 12 13 14 15 16 17
1 2 3 11 12 13 14 15 16 17 18 19 20 21 22 23 24 25 26 27 28 29 30 31 32 67 68 69 81 83 84
1 2 3 4 5 6 7 8 9 10 11 12 13 14 15 16 17
1 2 3 11 12 13 14 15 16 17 18 19 20 21 22 23 24 25 26 27 28 29 30 31 32 67 68 69 79 83 84
1 2 3 4 5 6 7 8 9 10 11 12 13 14 15 16 17
1 2 3 11 12 13 14 15 16 17 18 19 20 21 22 23 24 25 26 27 28 29 30 31 32 67 68 69 79 81 84
1 2 3 11 12 13 14 15 16 17 18 19 20 21 22 23 24 25 26 27 28 29 30 31 32 67 68 69 79 81 83
1 2 3 4 5 6 7 8 9 10 11 12 13 14 15 16 17


1 2 3 4 5 6 7 8 9 10 11 12 13 14 15 16 17 47

1 2 3 4 5 6 7 8 9 10 11 12 13 14 15 16 17 47 91
1 2 3 4 5 6 7 8 9 10 11 12 13 14 15 16 17 47 90
1 2 3 4 5 6 7 8 9 10 11 12 13 14 15 16 17 47






1 2 3 4 5 6 7 8 9 10 11 12 13 14 15 16 17 27 33 36 47 48 51

1 2 3 4 5 6 7 8 9 10 11 12 13 14 15 16 17 27 33 36 48 51




1 2 3 4 5 6 7 8 9 10 11 12 13 14 15 16 17 27 33 36 41 43 45 48 51 54
1 2 3 4 5 6 7 8 9 10 11 12 13 14 15 16 17 27 33 36 41 43 45 48 51 54 108
1 2 3 4 5 6 7 8 9 10 11 12 13 14 15 16 17 27 33 36 41 43 45 48 51 54 107
1 2 3 4 5 6 7 8 9 10 11 12 13 14 15 16 17 27 33 36 41 43 45 48 51 54
1 2 3 4 5 6 7 8 9 10 11 12 13 14 15 16 17 27 33 36 41 43 45 48 51 54 117






1 2 3 4 5 6 7 8 9 10 11 12 13 14 15 16 17 27 33 36 41 43 45 48 51 54 110


1 2 3 4 5 6 7 8 9 10 11 12 13 14 15 16 17 27 33 36 41 43 45 48 51 54 59 60 121
1 2 3 4 5 6 7 8 9 10 11 12 13 14 15 16 17 27 33 36 41 43 45 48 51 54 59 60 120
1 2 3 4 5 6 7 8 9 10 11 12 13 14 15 16 17 27 33 36 41 43 45 48 51 54 59 60

1 2 3 4 5 6 7 8 9 10 11 12 13 14 15 16 17 27 33 36 41 43 45 48 51 54 60 61
1 2 3 4 5 6 7 8 9 10 11 12 13 14 15 16 17 27 33 36 41 43 45 48 51 54 56 57 61 126 127 145 146 147 148 151 152 162 163 164 165 166 167 168 170 172 173 174 175 176 177 178 179 180 181 182 183 184 185 186 190 191 192 193 194 195 196 197 198 199 200 201 202 204 205 206 207 208
1 2 3 4 5 6 7 8 9 10 11 12 13 14 15 16 17 27 33 36 41 43 45 48 51 54 61 125
1 2 3 4 5 6 7 8 9 10 11 12 13 14 15 16 17 27 33 36 41 43 45 48 51 54 61 125
1 2 3 4 5 6 7 8 9 10 11 12 13 14 15 16 17 36
1 2 3 4 5 6 7 8 9 10 11 12 13 14 15 16 17 36
1 2 3 4 5 6 7 8 9 10 11 12 13 14 15 16 17 36
1 2 3 4 5 6 7 8 9 10 11 12 13 14 15 16 17 27 36 132 133 134 135 136 137 138 139
1 2 3 4 5 6 7 8 9 10 11 12 13 14 15 16 17 26 27 36 131 133 134 135 136 137 138 139
1 2 3 4 5 6 7 8 9 10 11 12 13 14 15 16 17 25 26 27 36 131 132 134 135 136 137 138 139
1 2 3 4 5 6 7 8 9 10 11 12 13 14 15 16 17 24 25 26 27 36 131 132 133 135 136 137 138 139
1 2 3 4 5 6 7 8 9 10 11 12 13 14 15 16 17 23 24 25 26 27 36 131 132 133 134 136 137 138 139
1 2 3 4 5 6 7 8 9 10 11 12 13 14 15 16 17 22 23 24 25 26 27 36 131 132 133 134 135 137 138 139
1 2 3 4 5 6 7 8 9 10 11 12 13 14 15 16 17 21 22 23 24 25 26 27 36 131 132 133 134 135 136 138 139
1 2 3 4 5 6 7 8 9 10 11 12 13 14 15 16 17 20 21 22 23 24 25 26 27 36 131 132 133 134 135 136 137 139
1 2 3 4 5 6 7 8 9 10 11 12 13 14 15 16 17 19 20 21 22 23 24 25 26 27 36 131 132 133 134 135 136 137 138
1 2 9 10 16 17 18 19 20 21 22 23 24 25 26 27 28 29 30 31 32 67 68 69 141 142 143 144
1 2 8 9 10 16 17 18 19 20 21 22 23 24 25 26 27 28 29 30 31 32 67 68 69 140 142 143 144
1 2 7 8 9 10 16 17 18 19 20 21 22 23 24 25 26 27 28 29 30 31 32 67 68 69 140 141 143 144
1 2 6 7 8 9 10 16 17 18 19 20 21 22 23 24 25 26 27 28 29 30 31 32 67 68 69 140 141 142 144
1 2 5 6 7 8 9 10 16 17 18 19 20 21 22 23 24 25 26 27 28 29 30 31 32 67 68 69 140 141 142 143
1 2 3 4 5 6 7 8 9 10 11 12 13 14 15 16 17 27 33 36 41 43 45 48 51 54 61 125
1 2 3 4 5 6 7 8 9 10 11 12 13 14 15 16 17 27 33 36 41 43 45 48 51 54 61 125
1 2 3 4 5 6 7 8 9 10 11 12 13 14 15 16 17 27 33 36 41 43 45 48 51 54 61 125
1 2 3 4 5 6 7 8 9 10 11 12 13 14 15 16 17 27 33 36 41 43 45 48 51 54 61 125


1 2 3 4 5 6 7 8 9 10 11 12 13 14 15 16 17 27 33 36 41 43 45 48 54 61 125
1 2 3 4 5 6 7 8 9 10 11 12 13 14 15 16 17 27 33 36 41 43 45 48 54 61 125

1 2 3 4 5 6 7 8 9 10 11 12 13 14 15 16 17 27 33 36 41 43 45 48 51 54

1 2 3 4 5 6 7 8 9 10 11 12 13 14 15 16 17 27 33 36 41 43 45 48 51 54





1 2 3 4 5 6 7 8 9 10 11 12 13 14 15 16 17 27 33 36 41 43 45 48 51 54 61 125 163
1 2 3 4 5 6 7 8 9 10 11 12 13 14 15 16 17 27 33 36 41 43 45 48 51 54 61 125 162
1 2 3 4 5 6 7 8 9 10 11 12 13 14 15 16 17 27 33 36 41 43 45 48 51 54 61 125
1 2 3 4 5 6 7 8 9 10 11 12 13 14 15 16 17 27 33 36 41 43 45 48 51 54 61 125
1 2 3 4 5 6 7 8 9 10 11 12 13 14 15 16 17 27 36 41 43 45 51 54 56 61 125 167 168 170
1 2 3 4 5 6 7 8 9 10 11 12 13 14 15 16 17 27 36 41 43 45 51 54 61 125 166
1 2 3 4 5 6 7 8 9 10 11 12 13 14 15 16 17 27 36 41 43 45 51 54 61 125 166

1 2 3 4 5 6 7 8 9 10 11 12 13 14 15 16 17 27 36 41 43 45 51 54 56 61 125 166

1 2 3 4 5 6 7 8 9 10 11 12 13 14 15 16 17 27 36 41 43 45 51 54 57 61 125 173 174 175 176 177 178 179 180 181 182 183 184 185 186
1 2 3 4 5 6 7 8 9 10 11 12 13 14 15 16 17 27 36 41 43 45 51 54 57 61 125 172 174
1 2 3 4 5 6 7 8 9 10 11 12 13 14 15 16 17 27 36 41 43 45 51 54 57 61 125 172 173 175
1 2 3 4 5 6 7 8 9 10 11 12 13 14 15 16 17 27 36 41 43 45 51 54 57 61 125 172 174 176 177 178 179 180
1 2 3 4 5 6 7 8 9 10 11 12 13 14 15 16 17 27 36 41 43 45 51 54 57 61 125 172 175
1 2 3 4 5 6 7 8 9 10 11 12 13 14 15 16 17 27 36 41 43 45 51 54 57 61 125 172 175 178 179
1 2 3 4 5 6 7 8 9 10 11 12 13 14 15 16 17 27 36 41 43 45 51 54 57 61 125 172 175 177
1 2 3 4 5 6 7 8 9 10 11 12 13 14 15 16 17 27 36 41 43 45 51 54 57 61 125 172 175 177
1 2 3 4 5 6 7 8 9 10 11 12 13 14 15 16 17 27 36 41 43 45 51 54 57 61 125 172 175
1 2 3 4 5 6 7 8 9 10 11 12 13 14 15 16 17 27 36 41 43 45 51 54 57 61 125 172
1 2 3 4 5 6 7 8 9 10 11 12 13 14 15 16 17 27 36 41 43 45 51 54 57 61 125 172
1 2 3 4 5 6 7 8 9 10 11 12 13 14 15 16 17 27 36 41 43 51 54 57 61 125 172
1 2 3 4 5 6 7 8 9 10 11 12 13 14 15 16 17 27 36 41 43 51 54 57 61 125 172
1 2 3 4 5 6 7 8 9 10 11 12 13 14 15 16 17 27 36 41 43 51 54 57 61 125 172
1 2 3 4 5 6 7 8 9 10 11 12 13 14 15 16 17 27 36 41 43 51 54 57 61 125 172



1 2 3 4 5 6 7 8 9 10 11 12 13 14 15 16 17 27 36 41 43 45 48 51 54 61 125 191 192 193 194 195 196 197 198 199 200
1 2 3 4 5 6 7 8 9 10 11 12 13 14 15 16 17 27 36 41 43 45 48 51 54 56 61 125 190 192 193 194 195 196 197 198 199 200 201 202 204
1 2 3 4 5 6 7 8 9 10 11 12 13 14 15 16 17 27 36 41 43 45 48 51 54 61 125 190 191 193 194 195 196 197 198 199
1 2 3 4 5 6 7 8 9 10 11 12 13 14 15 16 17 27 36 41 43 45 51 54 56 61 125 190 191 192 194 195 196 197 198 199 200 201 202 204 205 206 207
1 2 3 4 5 6 7 8 9 10 11 12 13 14 15 16 17 27 36 41 43 45 51 54 61 125 190 191 192 193
1 2 3 4 5 6 7 8 9 10 11 12 13 14 15 16 17 27 36 41 43 45 51 54 61 125 190 191 192 193
1 2 3 4 5 6 7 8 9 10 11 12 13 14 15 16 17 27 36 41 43 45 51 54 61 125 190 191 192 193 197
1 2 3 4 5 6 7 8 9 10 11 12 13 14 15 16 17 27 36 41 43 45 51 54 61 125 190 191 192 193 196
1 2 3 4 5 6 7 8 9 10 11 12 13 14 15 16 17 27 36 41 43 45 51 54 61 125 190 191 192 193 199 200 201
1 2 3 4 5 6 7 8 9 10 11 12 13 14 15 16 17 27 36 41 43 45 51 54 61 125 190 191 192 193 198
1 2 3 4 5 6 7 8 9 10 11 12 13 14 15 16 17 27 36 41 43 45 51 54 56 61 125 190 191 193 198 201 202 204 205
1 2 3 4 5 6 7 8 9 10 11 12 13 14 15 16 17 27 36 41 43 45 51 54 61 125 191 193 198 200
1 2 3 4 5 6 7 8 9 10 11 12 13 14 15 16 17 27 36 41 43 45 51 54 61 125 191 193 200

1 2 3 4 5 6 7 8 9 10 11 12 13 14 15 16 17 27 36 41 43 45 51 54 56 61 125 191 193 200
1 2 3 4 5 6 7 8 9 10 11 12 13 14 15 16 17 27 36 41 43 45 51 54 56 61 125 193 200
1 2 3 4 5 6 7 8 9 10 11 12 13 14 15 16 17 27 36 41 43 45 51 54 56 61 125 193 207 208
1 2 3 4 5 6 7 8 9 10 11 12 13 14 15 16 17 27 36 41 43 45 51 54 56 61 125 193 206
1 2 3 4 5 6 7 8 9 10 11 12 13 14 15 16 17 27 36 41 43 45 51 54 56 61 125 206

1 2 3 4 5 6 7 8 9 10 11 12 13 14 15 16 17 27 33 36 41 43 45 48 51 54 211
1 2 3 4 5 6 7 8 9 10 11 12 13 14 15 16 17 27 33 36 41 43 45 48 51 54 210
